 vasp.5.3.5 31Mar14 (build Jul 12 2017 11:42:46) complex

 executed on Stampede2-Greg-Stati date 2019.12.09  21:10:08

 INCAR:
 POTCAR:   PAW_PBE Si 05Jan2001
 POTCAR:   PAW_PBE N 08Apr2002
 POTCAR:   PAW_PBE H 15Jun2001
 POTCAR:   PAW_PBE C 08Apr2002
 POTCAR:   PAW_PBE F 08Apr2002

 POTCAR:   PAW_PBE Si 05Jan2001

 POTCAR:   PAW_PBE N 08Apr2002

 POTCAR:   PAW_PBE H 15Jun2001

[...]

 POTCAR:   PAW_PBE F 08Apr2002

 PAW_PBE Si 05Jan2001                   :
 PAW_PBE N 08Apr2002                    :
 PAW_PBE H 15Jun2001                    :
 PAW_PBE C 08Apr2002                    :
 PAW_PBE F 08Apr2002                    :

 POSCAR: Si   N    H    C    F
  positions in direct lattice
 exchange correlation table for  LEXCH =        8
   RHO(1)=    0.500       N(1)  =     2000
   RHO(2)=  100.500       N(2)  =     4000

 VTST: version 3.1, (03/28/14)

 CHAIN: initializing optimizer

 OPT: Using VASP Dynamics algorithm
 CHAIN: Read ICHAIN            0

 POSCAR: Si   N    H    C    F
  positions in direct lattice

 ion  position               nearest neighbor table
   1  0.087  0.387  0.084- 125 1.49  50 1.72  69 1.73  57 1.76  25 2.92  15 3.01   5 3.04   9 3.04
                            18 3.06
   2  0.087  0.887  0.084- 126 1.49  49 1.72  70 1.73  58 1.76  26 2.92  16 3.01   6 3.04  10 3.04
                            17 3.06
   3  0.587  0.387  0.084- 127 1.49  52 1.72  71 1.73  59 1.76  27 2.92  13 3.01   7 3.04  11 3.04
                            20 3.06
   4  0.587  0.887  0.084- 128 1.49  51 1.72  72 1.73  60 1.76  28 2.92  14 3.01   8 3.04  12 3.04
                            19 3.06
   5  0.298  0.415  0.084- 129 1.49  73 1.73  57 1.76  53 1.76  33 2.92  22 3.01   1 3.04   9 3.04
                            13 3.09
   6  0.298  0.915  0.084- 130 1.49  74 1.73  58 1.76  54 1.76  34 2.92  21 3.01   2 3.04  10 3.04
                            14 3.09
   7  0.798  0.415  0.084- 131 1.49  75 1.73  59 1.76  55 1.76  35 2.92  24 3.01   3 3.04  11 3.04
                            15 3.09
   8  0.798  0.915  0.084- 132 1.49  76 1.73  60 1.76  56 1.76  36 2.92  23 3.01   4 3.04  12 3.04
                            16 3.09
   9  0.115  0.204  0.084- 133 1.49  63 1.71  77 1.73  57 1.76  29 2.91  17 3.03   1 3.04   5 3.04
                            23 3.06
  10  0.115  0.704  0.084- 134 1.49  64 1.71  78 1.73  58 1.76  30 2.91  18 3.03   2 3.04   6 3.04
                            24 3.06
  11  0.615  0.204  0.084- 135 1.49  61 1.71  79 1.73  59 1.76  31 2.92  19 3.03   3 3.04   7 3.04
                            21 3.06
  12  0.615  0.704  0.084- 136 1.49  62 1.71  80 1.73  60 1.76  32 2.91  20 3.03   4 3.04   8 3.04
                            22 3.06
  13  0.388  0.299  0.153-  53 1.73  71 1.74  85 1.75  65 1.75  37 2.93   3 3.01  17 3.03  21 3.03
                            33 3.08  27 3.08   5 3.09
  14  0.388  0.799  0.153-  54 1.73  72 1.74  86 1.75  66 1.75  38 2.93   4 3.01  18 3.03  22 3.03
                            34 3.08  28 3.08   6 3.09
  15  0.888  0.299  0.153-  55 1.73  69 1.74  67 1.75  87 1.75  39 2.93   1 3.01  19 3.03  23 3.03
                            35 3.08  25 3.08   7 3.09
  16  0.888  0.799  0.153-  56 1.73  70 1.74  88 1.75  68 1.75  40 2.93   2 3.01  20 3.03  24 3.03
                            36 3.08  26 3.08   8 3.09
  17  0.203  0.091  0.153-  49 1.74  77 1.74  81 1.75  65 1.75  41 2.94  13 3.03   9 3.03  21 3.03
                             2 3.06  29 3.08  26 3.09
  18  0.203  0.591  0.153-  50 1.74  78 1.74  82 1.75  66 1.75  42 2.93  14 3.03  10 3.03  22 3.03
                             1 3.06  30 3.08  25 3.08
  19  0.703  0.091  0.153-  51 1.74  79 1.74  83 1.75  67 1.75  43 2.93  15 3.03  11 3.03  23 3.03
                             4 3.06  31 3.08  28 3.09
  20  0.703  0.591  0.153-  52 1.74  80 1.74  84 1.75  68 1.75  44 2.93  16 3.03  12 3.03  24 3.03
                             3 3.06  32 3.08  27 3.09
  21  0.412  0.114  0.153-  74 1.74  61 1.74  93 1.75  65 1.75  45 2.93   6 3.01  13 3.03  17 3.03
                            11 3.06  34 3.08  31 3.08
  22  0.412  0.614  0.153-  73 1.74  62 1.74  94 1.75  66 1.75  46 2.93   5 3.01  14 3.03  18 3.03
                            12 3.06  33 3.08  32 3.08
  23  0.912  0.114  0.153-  76 1.74  63 1.74  95 1.75  67 1.75  47 2.93   8 3.01  15 3.03  19 3.03
                             9 3.06  36 3.08  29 3.08
  24  0.912  0.614  0.153-  75 1.74  64 1.74  96 1.75  68 1.75  48 2.93   7 3.01  16 3.03  20 3.03
                            10 3.06  35 3.08  30 3.08
  25  0.091  0.388  0.225- 101 1.72  69 1.74  89 1.74  82 1.74   1 2.92  33 3.02  29 3.02  42 3.04
                            15 3.08  18 3.08  39 3.09
  26  0.090  0.888  0.225- 102 1.72  70 1.74  81 1.74  90 1.74   2 2.92  34 3.02  30 3.02  41 3.04
                            16 3.08  17 3.09  40 3.09
  27  0.590  0.388  0.225- 103 1.72  71 1.74  84 1.74  91 1.75   3 2.92  35 3.02  31 3.02  44 3.04
                            13 3.08  20 3.09  37 3.09
  28  0.590  0.888  0.225- 104 1.72  72 1.74  92 1.74  83 1.74   4 2.92  32 3.02  36 3.02  43 3.04
                            14 3.08  19 3.09  38 3.09
  29  0.115  0.204  0.225- 109 1.72  77 1.74  89 1.74  95 1.75   9 2.91  33 3.01  25 3.02  47 3.04
                            17 3.08  23 3.08  41 3.09
  30  0.114  0.704  0.225- 110 1.72  78 1.74  90 1.74  96 1.74  10 2.91  34 3.01  26 3.02  48 3.04
                            18 3.08  24 3.08  42 3.09
  31  0.614  0.204  0.225- 111 1.72  79 1.74  93 1.74  91 1.75  11 2.92  35 3.02  27 3.02  45 3.04
                            19 3.08  21 3.08  43 3.09
  32  0.614  0.704  0.225- 112 1.72  80 1.74  94 1.74  92 1.74  12 2.91  36 3.01  28 3.02  46 3.04
                            20 3.08  22 3.08  44 3.09
  33  0.298  0.412  0.225- 105 1.72  73 1.74  85 1.74  89 1.74   5 2.92  29 3.01  25 3.02  37 3.04
                            22 3.08  13 3.08  46 3.09
  34  0.298  0.911  0.225- 106 1.72  74 1.74  86 1.74  90 1.74   6 2.92  30 3.01  26 3.02  38 3.04
                            21 3.08  14 3.08  45 3.09
  35  0.798  0.412  0.225- 107 1.72  75 1.74  87 1.74  91 1.74   7 2.92  31 3.02  27 3.02  39 3.05
                            24 3.08  15 3.08  48 3.09
  36  0.798  0.912  0.225- 108 1.72  76 1.74  88 1.74  92 1.74   8 2.92  32 3.01  28 3.02  40 3.04
                            23 3.08  16 3.08  47 3.09
  37  0.385  0.297  0.294- 103 1.72  97 1.74 117 1.74  85 1.74  13 2.93  41 3.00  45 3.00  33 3.04
                            27 3.09
  38  0.385  0.797  0.294- 104 1.72  98 1.74 118 1.74  86 1.74  14 2.93  42 3.00  46 3.00  34 3.04
                            28 3.09
  39  0.885  0.297  0.294- 101 1.72  99 1.74  87 1.74 119 1.74  15 2.93  47 3.00  43 3.00  35 3.05
                            25 3.09
  40  0.885  0.797  0.294- 102 1.72 100 1.74 120 1.74  88 1.74  16 2.93  44 3.00  48 3.00  36 3.04
                            26 3.09
  41  0.205  0.089  0.294- 109 1.72  97 1.74 113 1.74  81 1.74  17 2.94  45 2.99  37 3.00  26 3.04
                            29 3.09
  42  0.205  0.589  0.294- 110 1.72  98 1.74 114 1.74  82 1.74  18 2.93  46 3.00  38 3.00  25 3.04
                            30 3.09
  43  0.705  0.089  0.294- 111 1.72  99 1.74 115 1.74  83 1.74  19 2.93  47 3.00  39 3.00  28 3.04
                            31 3.09
  44  0.705  0.589  0.294- 112 1.72 100 1.74 116 1.74  84 1.74  20 2.93  40 3.00  48 3.00  27 3.04
                            32 3.09
  45  0.413  0.117  0.294- 106 1.72 121 1.73  97 1.73  93 1.74  21 2.93  41 2.99  37 3.00  31 3.04
                            34 3.09
  46  0.413  0.617  0.294- 105 1.72  98 1.74 122 1.74  94 1.74  22 2.93  42 3.00  38 3.00  32 3.04
                            33 3.09
  47  0.913  0.117  0.294- 108 1.72  99 1.74 123 1.74  95 1.74  23 2.93  39 3.00  43 3.00  29 3.04
                            36 3.09
  48  0.913  0.618  0.294- 107 1.73 100 1.74 124 1.74  96 1.74  24 2.93  40 3.00  44 3.00  30 3.04
                            35 3.09
  49  0.165  0.015  0.084- 137 1.02   2 1.72  17 1.74
  50  0.165  0.515  0.084- 138 1.02   1 1.72  18 1.74
  51  0.665  0.015  0.084- 139 1.02   4 1.72  19 1.74
  52  0.665  0.515  0.084- 140 1.02   3 1.72  20 1.74
  53  0.352  0.337  0.084- 141 1.02  13 1.73   5 1.76
  54  0.352  0.837  0.084- 142 1.02  14 1.73   6 1.76
  55  0.852  0.337  0.084- 143 1.02  15 1.73   7 1.76
  56  0.852  0.837  0.084- 144 1.02  16 1.73   8 1.76
  57  0.167  0.335  0.084-   5 1.76   9 1.76   1 1.76
  58  0.167  0.835  0.084-   6 1.76  10 1.76   2 1.76
  59  0.667  0.335  0.084-   7 1.76  11 1.76   3 1.76
  60  0.667  0.835  0.084-   8 1.76  12 1.76   4 1.76
  61  0.487  0.150  0.084- 145 1.02  11 1.71  21 1.74
  62  0.487  0.650  0.084- 146 1.02  12 1.71  22 1.74
  63  0.987  0.150  0.084- 147 1.02   9 1.71  23 1.74
  64  0.987  0.650  0.084- 148 1.02  10 1.71  24 1.74
  65  0.334  0.168  0.149-  21 1.75  13 1.75  17 1.75
  66  0.334  0.668  0.149-  22 1.75  14 1.75  18 1.75
  67  0.834  0.168  0.149-  23 1.75  15 1.75  19 1.75
  68  0.834  0.668  0.149-  24 1.75  20 1.75  16 1.75
  69  0.018  0.354  0.155-   1 1.73  15 1.74  25 1.74
  70  0.018  0.854  0.155-   2 1.73  16 1.74  26 1.74
  71  0.518  0.354  0.155-   3 1.73  13 1.74  27 1.74
  72  0.518  0.854  0.155-   4 1.73  14 1.74  28 1.74
  73  0.336  0.484  0.155-   5 1.73  22 1.74  33 1.74
  74  0.336  0.984  0.155-   6 1.73  21 1.74  34 1.74
  75  0.836  0.484  0.155-   7 1.73  24 1.74  35 1.74
  76  0.836  0.984  0.155-   8 1.73  23 1.74  36 1.74
  77  0.148  0.166  0.154-   9 1.73  17 1.74  29 1.74
  78  0.148  0.666  0.154-  10 1.73  18 1.74  30 1.74
  79  0.648  0.166  0.154-  11 1.73  19 1.74  31 1.74
  80  0.648  0.666  0.154-  12 1.73  20 1.74  32 1.74
  81  0.167  0.019  0.223-  41 1.74  26 1.74  17 1.75
  82  0.167  0.519  0.223-  42 1.74  25 1.74  18 1.75
  83  0.667  0.019  0.223-  43 1.74  28 1.74  19 1.75
  84  0.667  0.519  0.223-  44 1.74  27 1.74  20 1.75
  85  0.352  0.335  0.224-  37 1.74  33 1.74  13 1.75
  86  0.352  0.835  0.224-  38 1.74  34 1.74  14 1.75
  87  0.852  0.335  0.224-  39 1.74  35 1.74  15 1.75
  88  0.852  0.835  0.224-  40 1.74  36 1.74  16 1.75
  89  0.168  0.335  0.230-  25 1.74  33 1.74  29 1.74
  90  0.167  0.834  0.230-  34 1.74  30 1.74  26 1.74
  91  0.668  0.334  0.230-  35 1.74  31 1.75  27 1.75
  92  0.668  0.835  0.230-  36 1.74  28 1.74  32 1.74
  93  0.484  0.149  0.224-  45 1.74  31 1.74  21 1.75
  94  0.484  0.650  0.224-  46 1.74  32 1.74  22 1.75
  95  0.984  0.150  0.224-  47 1.74  29 1.75  23 1.75
  96  0.984  0.650  0.224-  48 1.74  30 1.74  24 1.75
  97  0.335  0.168  0.301-  45 1.73  41 1.74  37 1.74
  98  0.334  0.668  0.301-  42 1.74  46 1.74  38 1.74
  99  0.835  0.168  0.301-  39 1.74  43 1.74  47 1.74
 100  0.834  0.668  0.301-  48 1.74  44 1.74  40 1.74
 101  0.014  0.348  0.292- 149 1.03  25 1.72  39 1.72
 102  0.014  0.848  0.292- 150 1.03  26 1.72  40 1.72
 103  0.514  0.348  0.292- 151 1.03  27 1.72  37 1.72
 104  0.514  0.848  0.292- 152 1.03  28 1.72  38 1.72
 105  0.335  0.489  0.292- 153 1.03  33 1.72  46 1.72
 106  0.335  0.988  0.292- 154 1.03  34 1.72  45 1.72
 107  0.835  0.489  0.292- 155 1.03  35 1.72  48 1.73
[...]
175X    -0.098476    0.292912   -1.367434   -0.023595   -0.053039   -0.189161    0.105086    0.107944    0.051841    0.067523   -0.073270    0.174460    6.929524   -6.837680   13.652338    0.530388    0.260248    0.689479   -7.691937    6.448371  -13.089726    0.010766   -0.009832    0.029892    0.008869   -0.027754   -0.012709    0.016705    0.051838   -0.045096    0.140603   -0.050905    0.002403   -0.124464    0.018280    0.024504
175Y     0.366325   -0.269003    0.222501   -0.090033   -0.023322    0.331253    0.028441    0.031887   -0.141761   -0.042612   -0.010315    0.090852   -5.512761    7.339803   -8.113794   -1.078492    0.471332   -3.036767    6.407621   -7.993023   10.744028    0.003470    0.000501    0.010574   -0.009867    0.020213    0.004753    0.011178    0.002611   -0.019052    0.010523   -0.065064   -0.012299   -0.003729    0.016249    0.009993
175Z     1.077231   -0.645998    1.493629   -0.150796    0.075723    0.323138   -0.044925   -0.154138   -0.258087    0.031140    0.052380   -0.217172   12.393534  -10.651608   31.113634   -0.167332    0.488426   -0.179866  -13.110152   10.800729  -32.236532    0.011138   -0.003712    0.001503   -0.005891    0.011349   -0.000723   -0.010552   -0.017094    0.000319   -0.039347    0.005276   -0.013286    0.021180   -0.001608    0.003570
185X     0.061750   -0.041461   -0.118033   -0.002886    0.001593    0.038936   -0.019617    0.032329    0.014823   -0.037442   -0.008037    0.034537   -0.085315    0.007183    0.040395    0.059718    0.042757   -0.014178    0.010397    0.002160    0.010569   -5.441207    0.028925   -1.303566   -0.164466   -0.068823    1.219577   -0.168385    0.117436    1.143157    4.103627    0.040806    2.857969    1.469226   -0.090188   -3.939687
185Y    -0.010321   -0.018097    0.008365   -0.006169    0.016308    0.001006    0.021601    0.000707    0.000339    0.005270    0.002227   -0.004672    0.009586    0.031832   -0.012625    0.054280    0.004555   -0.002625   -0.009766    0.000929   -0.004142    0.013358   -4.262262   -0.490326    0.253993   -0.024543    2.403491   -0.256621   -0.114523   -2.417571   -0.009609    4.492461    0.427867   -0.047659   -0.240366    0.085428
185Z     0.018919   -0.026176   -0.078287    0.008678   -0.003230    0.016181   -0.005245    0.011611    0.008467   -0.020591   -0.004923    0.021368   -0.181426   -0.012641    0.119177    0.023909    0.027328   -0.014057    0.028010    0.010081    0.003039   -1.315173   -0.506290  -32.570749    0.181623   -0.123663    0.678736    0.188978    0.149457    0.760820    1.989231    0.431189   30.226312   -0.971352    0.040227    0.701082
186X     0.003507   -0.009481   -0.015724    0.002917   -0.000671   -0.000936    0.005127    0.000964   -0.000472    0.001242    0.000297    0.001810   -0.002938   -0.000278    0.001222   -0.000101    0.002953   -0.012124    0.010047   -0.008140   -0.004408   -0.154594    0.272903    0.202299  -10.823150  -10.133163   -3.618597   -0.828749   -0.912700   -0.357104    8.507018    8.465672    3.732875    3.275832    2.399557    0.169547
186Y    -0.021986    0.020963    0.040709    0.001157   -0.002907   -0.012922    0.002086   -0.014616   -0.004547    0.010305    0.000728   -0.007317    0.023152   -0.024492   -0.054170   -0.014160   -0.019511    0.035996   -0.025793    0.025266    0.014997   -0.067104   -0.008718   -0.132137  -10.119217  -22.868848   -7.415501    1.006320    1.771698    0.951671    9.079567   21.905610    6.980603    0.138837   -0.733875   -0.326457
186Z    -0.011764    0.020756    0.040908    0.001040   -0.006796   -0.012387   -0.002002   -0.009744   -0.006489    0.009165    0.001285   -0.008358    0.027397   -0.008417   -0.048095   -0.045149   -0.010704    0.040365   -0.014421    0.005363    0.001445    1.219461    2.413666    0.644207   -3.609841   -7.401603   -7.179632   -0.408309   -1.027334   -0.431499    3.982312    7.157764    7.482158   -1.146333   -1.122636   -0.491846
187X     0.003317   -0.007375   -0.016149    0.001703    0.001318    0.003894    0.003912    0.004494    0.003184   -0.003192   -0.000455    0.004700   -0.006482    0.015422    0.008274    0.000147    0.007862   -0.000192    0.015397    0.003796   -0.011701   -0.160721   -0.259568    0.202946   -0.822168    0.985457   -0.429785  -10.212712    9.583128   -3.800943    7.965649   -7.859448    3.818759    3.209881   -2.482553    0.241193
187Y     0.020761   -0.012819   -0.033549    0.000239   -0.002371    0.008967   -0.006126    0.005229    0.004125   -0.009164   -0.002316    0.005750   -0.022919   -0.009897    0.028902   -0.016355    0.011323    0.006456    0.050801    0.009595   -0.019279    0.110899   -0.102301    0.156832   -0.951044    1.779537   -1.028161    9.573965  -22.806855    8.093550   -8.457725   21.800990   -7.585167   -0.301687   -0.609099    0.322722
187Z    -0.021674    0.006328    0.052475   -0.007547    0.008497   -0.012720    0.013459   -0.005997   -0.010642    0.015537    0.003956   -0.014976    0.038053    0.033120   -0.061854    0.021335   -0.005696    0.003500   -0.045785   -0.020402    0.003403    1.138407   -2.424680    0.732344   -0.341982    0.970072   -0.437571   -3.779670    8.053110   -7.824847    4.125228   -7.770627    8.050664   -1.153762    1.177653   -0.550927
188X     0.146492   -0.072862   -0.244866   -0.007656    0.002504    0.095451   -0.057939    0.058274    0.055157   -0.088259   -0.018324    0.067641   -0.025914    0.012715    0.199914    0.045425    0.046635   -0.075336    0.131674    0.006908   -0.040267    4.133591    0.009943    1.949569    8.515386    9.074100    3.988140    7.981699   -8.448514    4.125810  -40.605860   -0.388746   -5.051166   19.491311   -0.321425   -5.141811
188Y    -0.000268   -0.007832    0.006489   -0.004039    0.010851   -0.001978    0.008918    0.020185   -0.015490    0.006905    0.008319   -0.004305    0.014171    0.065289    0.017184    0.036039    0.010376   -0.075666   -0.049321   -0.067105    0.005174    0.039895    4.523372    0.433433    8.464535   21.871717    7.139047   -7.870067   21.767608   -7.773224   -0.386865  -54.296773    0.077373   -0.299354    5.638300    0.119022
188Z    -0.091546    0.067410    0.157321    0.027853   -0.009272   -0.051374    0.040668   -0.052089   -0.006224    0.068429    0.011645   -0.047790    0.247527   -0.028947   -0.115777   -0.086085   -0.058888   -0.004845    0.002670   -0.012236   -0.008638    2.857925    0.424680   30.201359    3.688026    6.939623    7.460206    3.804172   -7.543119    8.064654   -5.066732    0.073070  -53.445341   -5.429400    0.105033    7.570302
189X    -0.180710    0.132610    0.370243    0.006868   -0.004432   -0.125728    0.064613   -0.093498   -0.065275    0.134119    0.025866   -0.110371    0.315306   -0.035259   -0.372841   -0.065715   -0.084496    0.069342   -0.126610   -0.010495    0.026352    1.470271   -0.041612   -0.988648    3.276768    0.120996   -1.194032    3.195897   -0.288571   -1.149390   19.490541   -0.302255   -5.443432  -27.360832    0.577816    8.806487
189Y     0.007853    0.003837   -0.010471    0.002561   -0.009073    0.001083   -0.010168   -0.004278    0.002770   -0.004617   -0.002482    0.004420   -0.013081   -0.032178    0.007149   -0.025279   -0.003949    0.021809    0.018903    0.020089   -0.000231   -0.088779   -0.240554    0.051793    2.386737   -0.745052   -1.136008   -2.489242   -0.597548    1.168795   -0.320976    5.628381    0.106263    0.588681   -4.087184   -0.165850
189Z     0.080981   -0.066911   -0.166945   -0.015430    0.004951    0.054978   -0.035085    0.046210    0.017695   -0.064624   -0.012560    0.050996   -0.224566    0.020256    0.160140    0.048347    0.043016   -0.011822    0.021194    0.011156    0.005933   -3.925243    0.089379    0.690653    0.150694   -0.328301   -0.476851    0.246015    0.327193   -0.544421   -5.126367    0.118339    7.576196    8.794162   -0.155017   -7.477493

 Eigenvectors and eigenvalues of the dynamical matrix

[...]

  36 f  =    0.972629 THz     6.111207 2PiTHz   32.443403 cm-1     4.022471 meV
             X         Y         Z           dx          dy          dz
     -1.630415  5.134113  1.745419            0           0           0
     -5.463640 11.773453  1.745419            0           0           0
      6.036036  5.134113  1.745419            0           0           0
      2.202811 11.773453  1.745419            0           0           0
      1.388849  5.508541  1.745419            0           0           0
     -2.444376 12.147881  1.745419            0           0           0
      9.055300  5.508541  1.745419            0           0           0
      5.222075 12.147881  1.745419            0           0           0
      0.203387  2.706198  1.745420            0           0           0
     -3.629838  9.345538  1.745420            0           0           0
      7.869838  2.706198  1.745420            0           0           0
      4.036613  9.345538  1.745420            0           0           0
      3.656440  3.966301  3.170125            0           0           0
     -0.177687 10.605818  3.170220            0           0           0
     11.323022  3.966781  3.169968            0           0           0
      7.489415 10.605899  3.169955            0           0           0
      2.419986  1.202850  3.163222            0           0           0
     -1.414131  7.842253  3.163172            0           0           0
     10.086263  1.203058  3.163193            0           0           0
      6.252366  7.842326  3.162984            0           0           0
      5.438067  1.513371  3.168191            0           0           0
      1.603794  8.153976  3.168520            0           0           0
     13.105250  1.514244  3.169218            0           0           0
      9.270623  8.153571  3.168844            0           0           0
     -1.583646  5.150987  4.661498            0           0           0
     -5.420968 11.791108  4.663062            0           0           0
      6.079245  5.151015  4.663087            0           0           0
      2.245875 11.790023  4.662868            0           0           0
      0.192085  2.711032  4.659958            0           0           0
     -3.644068  9.349441  4.660083            0           0           0
      7.855478  2.708819  4.660639            0           0           0
      4.021160  9.350706  4.658743            0           0           0
      1.414960  5.466270  4.661923            0           0           0
     -2.421369 12.103289  4.661267            0           0           0
      9.080105  5.465573  4.663595            0           0           0
      5.247113 12.104170  4.662055            0           0           0
      3.620909  3.948182  6.102363            0           0           0
     -0.212667 10.587473  6.101933            0           0           0
     11.294867  3.944572  6.098232    -0.002967    0.001190    0.003616
      7.454128 10.586446  6.101888            0           0           0
      2.462838  1.184310  6.097968            0           0           0
     -1.372217  7.823346  6.097289            0           0           0
     10.132191  1.181668  6.096796            0           0           0
      6.290690  7.824826  6.096299            0           0           0
      5.433182  1.555465  6.097765            0           0           0
      1.600955  8.199147  6.099632            0           0           0
     13.105621  1.557226  6.099807            0           0           0
      9.267049  8.200049  6.099705            0           0           0
      2.417176  0.197217  1.745418            0           0           0
     -1.416049  6.836557  1.745418            0           0           0
     10.083627  0.197217  1.745418            0           0           0
      6.250401  6.836557  1.745418            0           0           0
      2.814070  4.472615  1.745418            0           0           0
     -1.019155 11.111956  1.745418            0           0           0
     10.480520  4.472615  1.745418            0           0           0
      6.647296 11.111956  1.745418            0           0           0
     -0.012366  4.449693  1.745419            0           0           0
     -3.845591 11.089033  1.745419            0           0           0
      7.654084  4.449693  1.745419            0           0           0
      3.820859 11.089033  1.745419            0           0           0
[...]
     10.785549  4.059344  8.380540    -0.005327   -0.004133    0.000839
      6.857463 10.620843  8.379774            0           0           0
      2.738524  0.651106  8.373513            0           0           0
     -1.109136  7.284921  8.375507            0           0           0
     10.399518  0.647408  8.375793            0           0           0
      6.542082  7.300588  8.373519            0           0           0
      5.765822  2.153692  8.367086            0           0           0
      1.933415  8.688996  8.376694            0           0           0
     13.443769  2.040146  8.378855            0           0           0
      9.598800  8.702730  8.378253            0           0           0
      7.643778  4.384873  8.308174     0.000092    0.039619   -0.002593
      8.203836  5.307560  9.749023    -0.121514   -0.095320    0.131731
      8.177026  3.501562  9.784547    -0.089118   -0.099545   -0.053727
      7.683014  4.405116  9.401083    -0.274108   -0.243357    0.008381
      6.361065  4.434472  9.902712    -0.503283   -0.633392   -0.383897

 Finite differences POTIM=  1.500000000000000E-002

 total charge

# of ion     s       p       d       tot
  1        0.694   0.985   0.000   1.680
  2        0.694   0.985   0.000   1.680
  3        0.694   0.985   0.000   1.680
  4        0.694   0.985   0.000   1.679
  5        0.691   0.967   0.000   1.659
  6        0.691   0.968   0.000   1.659
  7        0.691   0.967   0.000   1.659
  8        0.691   0.967   0.000   1.659
  9        0.694   0.986   0.000   1.679
 10        0.694   0.985   0.000   1.679
 11        0.694   0.985   0.000   1.679
 12        0.694   0.986   0.000   1.679
 13        0.673   0.963   0.000   1.636
 14        0.673   0.963   0.000   1.637
 15        0.673   0.963   0.000   1.636
 16        0.673   0.963   0.000   1.637
 17        0.672   0.959   0.000   1.631
 18        0.672   0.959   0.000   1.631
 19        0.672   0.958   0.000   1.631
 20        0.672   0.959   0.000   1.631
 21        0.673   0.961   0.000   1.634
 22        0.673   0.961   0.000   1.634
 23        0.673   0.960   0.000   1.633
 24        0.673   0.960   0.000   1.633
 25        0.676   0.973   0.000   1.649
 26        0.676   0.972   0.000   1.648
 27        0.676   0.973   0.000   1.648
 28        0.676   0.973   0.000   1.648
 29        0.676   0.972   0.000   1.648
 30        0.676   0.972   0.000   1.648
 31        0.676   0.971   0.000   1.647
 32        0.676   0.973   0.000   1.649
 33        0.676   0.973   0.000   1.649
 34        0.676   0.973   0.000   1.649
 35        0.676   0.972   0.000   1.647
 36        0.676   0.972   0.000   1.648
 37        0.681   0.989   0.000   1.669
 38        0.680   0.988   0.000   1.668
 39        0.681   0.989   0.000   1.669
 40        0.680   0.988   0.000   1.668
 41        0.680   0.988   0.000   1.668
 42        0.680   0.988   0.000   1.668
 43        0.680   0.989   0.000   1.669
 44        0.680   0.989   0.000   1.670
 45        0.680   0.990   0.000   1.670
 46        0.680   0.988   0.000   1.668
 47        0.680   0.988   0.000   1.668
 48        0.680   0.988   0.000   1.668
 49        1.223   2.736   0.000   3.959
 50        1.223   2.736   0.000   3.959
 51        1.223   2.736   0.000   3.959
 52        1.223   2.736   0.000   3.959
 53        1.222   2.715   0.000   3.937
 54        1.222   2.715   0.000   3.937
 55        1.222   2.715   0.000   3.937
 56        1.222   2.715   0.000   3.937
 57        1.229   2.680   0.000   3.908
 58        1.229   2.680   0.000   3.908
 59        1.229   2.679   0.000   3.908
 60        1.229   2.679   0.000   3.908
[...]
175        0.640   0.081   0.000   0.721
176        0.640   0.082   0.000   0.722
177        0.639   0.082   0.000   0.721
178        0.640   0.082   0.000   0.722
179        0.640   0.082   0.000   0.722
180        0.640   0.082   0.000   0.722
181        0.638   0.083   0.000   0.721
182        0.640   0.082   0.000   0.722
183        0.640   0.082   0.000   0.722
184        0.640   0.082   0.000   0.722
185        0.650   0.046   0.000   0.696
186        0.653   0.043   0.000   0.696
187        0.653   0.042   0.000   0.695
188        0.843   1.694   0.000   2.537
189        1.755   4.363   0.000   6.118
tot      167.725 263.608   0.000 431.333